100	100	32
101	101	41
102	102	46
103	103	32
104	104	39
105	105	41
106	106	40
107	107	39
108	108	33
109	109	36
110	110	46
111	111	37
112	112	44
113	113	47
114	114	41
115	115	410
116	116	57
117	117	60
118	118	77
119	119	70
120	120	43
121	121	48
122	122	52
123	123	51
124	124	45
125	125	103
126	126	34
127	127	36
128	128	50
129	129	107
130	130	51
131	131	52
132	132	69
133	133	55
134	134	78
135	135	53
136	136	184
137	137	72
138	138	52
139	139	37
140	140	54
141	141	79
142	142	67
143	143	67
144	144	67
145	145	86
146	146	77
147	147	90
148	148	71
149	149	80
150	150	73
151	151	88
152	152	86
153	153	93
154	154	79
155	155	91
156	156	79
157	157	115
158	158	141
159	159	84
160	160	84
161	161	93
162	162	47176
163	163	497
164	164	581
165	165	404
166	166	326
167	167	307
168	168	222
169	169	262
170	170	126
171	171	72
172	172	94
173	173	83
174	174	61
175	175	423
176	176	435
177	177	83
178	178	302
179	179	210
180	180	59
181	181	71
182	182	130
183	183	73
184	184	110
185	185	154
186	186	156
187	187	231
188	188	66
189	189	434
190	190	247
191	191	398
192	192	510
193	193	379
194	194	250
195	195	261
196	196	104
197	197	307
198	198	389
199	199	99
200	200	369
201	201	364
202	202	236
203	203	198
204	204	132
205	205	230
206	206	181
207	207	140
208	208	150
209	209	676
210	210	91
211	211	436
212	212	394
213	213	140
214	214	310
215	215	133
216	216	330
217	217	313
218	218	97
219	219	159
220	220	146
221	221	166
222	222	91
223	223	330
224	224	91
225	225	95
226	226	112
227	227	133
228	228	229
229	229	119
230	230	120
231	231	158
232	232	103
233	233	124
234	234	250
235	235	146
236	236	144
237	237	229
238	238	126
239	239	155
240	240	109
241	241	130
242	242	151
243	243	496
244	244	526
245	245	151
246	246	341
247	247	176
248	248	111
249	249	337
250	250	127
251	251	129
252	252	197
253	253	172
254	254	131
255	255	148
256	256	117
257	257	197
258	258	104
259	259	155
260	260	106
261	261	120
262	262	165
263	263	506
264	264	138
265	265	140
266	266	119
267	267	183
268	268	176
269	269	283
270	270	136
271	271	136
272	272	159
273	273	358
274	274	130
275	275	146
276	276	139
277	277	156
278	278	395
279	279	297
280	280	282
281	281	148
282	282	307
283	283	487
284	284	327
285	285	183
286	286	141
287	287	200
288	288	156
289	289	206
290	290	209
291	291	243
292	292	244
293	293	252
294	294	163
295	295	173
296	296	230
297	297	202
298	298	276
299	299	197
300	300	191
301	301	190
302	302	191
303	303	220
304	304	215
305	305	256
306	306	238
307	307	195
308	308	263
309	309	227
310	310	195
311	311	184
312	312	242
313	313	293
314	314	195
315	315	222
316	316	269
317	317	180
318	318	265
319	319	202
320	320	222
321	321	251
322	322	240
323	323	234
324	324	191
325	325	273
326	326	251
327	327	275
328	328	219
329	329	239
330	330	275
331	331	219
332	332	212
333	333	193
334	334	194
335	335	257
336	336	270
337	337	199
338	338	228
339	339	206
340	340	252
341	341	206
342	342	207
343	343	277
344	344	242
345	345	215
346	346	210
347	347	210
348	348	213
349	349	212
350	350	212
351	351	225
352	352	232
353	353	216
354	354	217
355	355	219
356	356	216
357	357	383
358	358	222
359	359	293
360	360	474
361	361	233
362	362	233
363	363	223
364	364	258
365	365	238
366	366	219
367	367	218
368	368	243
369	369	230
370	370	596
371	371	254
372	372	252
373	373	238
374	374	243
375	375	627
376	376	214
377	377	237
378	378	408
379	379	454
380	380	239
381	381	231
382	382	253
383	383	594
384	384	305
385	385	335
386	386	296
387	387	219
388	388	264
389	389	294
390	390	271
391	391	307
392	392	288
393	393	333
394	394	243
395	395	283
396	396	286
397	397	302
398	398	299
399	399	289
400	400	424
401	401	296
402	402	287
403	403	284
404	404	277
405	405	284
406	406	290
407	407	283
408	408	296
409	409	287
410	410	278
411	411	298
412	412	293
413	413	300
414	414	317
415	415	284
416	416	276
417	417	304
418	418	293
419	419	295
420	420	289
421	421	461
422	422	306
423	423	302
424	424	559
425	425	311
426	426	303
427	427	478
428	428	298
429	429	305
430	430	316
431	431	312
432	432	306
433	433	781
434	434	458
435	435	443
436	436	334
437	437	1169
438	438	376
439	439	339
440	440	367
441	441	342
442	442	392
443	443	363
444	444	348
445	445	496
446	446	447
447	447	351
448	448	388
449	449	341
450	450	345
451	451	350
452	452	408
453	453	345
454	454	409
455	455	621
456	456	401
457	457	1442
458	458	377
459	459	435
460	460	358
461	461	377
462	462	1732
463	463	410
464	464	364
465	465	406
466	466	412
467	467	979
468	468	378
469	469	458
470	470	1498
471	471	392
472	472	425
473	473	364
474	474	532
475	475	446
476	476	478
477	477	743
478	478	430
479	479	864
480	480	388
481	481	422
482	482	433
483	483	753
484	484	480
485	485	1990
486	486	389
487	487	392
488	488	558
489	489	1246
490	490	455
491	491	652
492	492	405
493	493	760
494	494	1037
495	495	1035
496	496	505
497	497	698
498	498	1091
499	499	1638
500	500	542
501	501	422
502	502	426
503	503	1238
504	504	955
505	505	416
506	506	420
507	507	528
508	508	498
509	509	438
510	510	486
511	511	664
512	512	510
513	513	463
514	514	449
515	515	466
516	516	862
517	517	643
518	518	486
519	519	919
520	520	481
521	521	495
522	522	530
523	523	500
524	524	897
525	525	471
526	526	451
527	527	680
528	528	923
529	529	479
530	530	458
531	531	476
532	532	471
533	533	482
534	534	469
535	535	470
536	536	1014
537	537	547
538	538	451
539	539	1650
540	540	538
541	541	1516
542	542	603
543	543	3032
544	544	521
545	545	521
546	546	484
547	547	489
548	548	508
549	549	531
550	550	458
551	551	730
552	552	517
553	553	539
554	554	530
555	555	535
556	556	513
557	557	516
558	558	514
559	559	530
560	560	509
561	561	527
562	562	909
563	563	511
564	564	521
565	565	549
566	566	1052
567	567	794
568	568	570
569	569	571
570	570	561
571	571	542
572	572	533
573	573	531
574	574	565
575	575	561
576	576	535
577	577	575
578	578	567
579	579	735
580	580	549
581	581	539
582	582	544
583	583	549
584	584	528
585	585	589
586	586	552
587	587	568
588	588	1200
589	589	549
590	590	571
591	591	572
592	592	583
593	593	546
594	594	573
595	595	558
596	596	1136
597	597	609
598	598	565
599	599	619
600	600	580
601	601	579
602	602	571
603	603	599
604	604	569
605	605	590
606	606	559
607	607	626
608	608	573
609	609	755
610	610	678
611	611	736
612	612	698
613	613	686
614	614	647
615	615	710
616	616	591
617	617	733
618	618	696
619	619	579
620	620	687
621	621	682
622	622	589
623	623	1162
624	624	597
625	625	736
626	626	725
627	627	706
628	628	685
629	629	640
630	630	687
631	631	674
632	632	612
633	633	621
634	634	1280
635	635	714
636	636	639
637	637	697
638	638	696
639	639	1608
640	640	628
641	641	651
642	642	712
643	643	650
644	644	863
645	645	744
646	646	720
647	647	1285
648	648	627
649	649	703
650	650	698
651	651	764
652	652	717
653	653	867
654	654	614
655	655	686
656	656	2042
657	657	732
658	658	640
659	659	1372
660	660	774
661	661	629
662	662	642
663	663	744
664	664	670
665	665	903
666	666	1168
667	667	717
668	668	647
669	669	753
670	670	774
671	671	689
672	672	751
673	673	757
674	674	1075
675	675	758
676	676	759
677	677	752
678	678	1399
679	679	1185
680	680	1119
681	681	804
682	682	755
683	683	1269
684	684	1228
685	685	1165
686	686	1138
687	687	766
688	688	1304
689	689	686
690	690	1184
691	691	716
692	692	778
693	693	795
694	694	772
695	695	801
696	696	829
697	697	809
698	698	809
699	699	1270
700	700	781
701	701	1191
702	702	759
703	703	684
704	704	742
705	705	788
706	706	766
707	707	797
708	708	1065
709	709	783
710	710	695
711	711	985
712	712	789
713	713	810
714	714	1315
715	715	799
716	716	803
717	717	825
718	718	819
719	719	881
720	720	1260
721	721	787
722	722	775
723	723	1017
724	724	837
725	725	799
726	726	726
727	727	832
728	728	1242
729	729	742
730	730	772
731	731	827
732	732	821
733	733	819
734	734	843
735	735	799
736	736	1543
737	737	986
738	738	841
739	739	1199
740	740	802
741	741	1027
742	742	887
743	743	1058
744	744	869
745	745	875
746	746	909
747	747	1328
748	748	857
749	749	835
750	750	852
751	751	900
752	752	867
753	753	907
754	754	853
755	755	870
756	756	884
757	757	1530
758	758	798
759	759	872
760	760	1354
761	761	870
762	762	966
763	763	831
764	764	1268
765	765	759
766	766	1323
767	767	1102
768	768	879
769	769	1224
770	770	871
771	771	929
772	772	925
773	773	964
774	774	902
775	775	1441
776	776	842
777	777	838
778	778	905
779	779	911
780	780	835
781	781	875
782	782	892
783	783	917
784	784	910
785	785	919
786	786	886
787	787	935
788	788	1403
789	789	1165
790	790	886
791	791	1246
792	792	961
793	793	1351
794	794	921
795	795	897
796	796	861
797	797	895
798	798	942
799	799	942
800	800	1866
801	801	2694
802	802	930
803	803	899
804	804	928
805	805	1426
806	806	970
807	807	918
808	808	889
809	809	928
810	810	941
811	811	926
812	812	1114
813	813	934
814	814	926
815	815	954
816	816	958
817	817	1076
818	818	977
819	819	968
820	820	1030
821	821	954
822	822	970
823	823	937
824	824	1509
825	825	953
826	826	1407
827	827	1012
828	828	979
829	829	944
830	830	989
831	831	1002
832	832	960
833	833	982
834	834	954
835	835	968
836	836	987
837	837	974
838	838	981
839	839	984
840	840	1018
841	841	993
842	842	1030
843	843	1006
844	844	1025
845	845	980
846	846	983
847	847	1269
848	848	988
849	849	1162
850	850	1191
851	851	981
852	852	971
853	853	1029
854	854	974
855	855	1069
856	856	1043
857	857	1036
858	858	1000
859	859	1545
860	860	1064
861	861	985
862	862	1050
863	863	1053
864	864	1031
865	865	1333
866	866	1300
867	867	1809
868	868	1381
869	869	1331
870	870	1394
871	871	1348
872	872	1482
873	873	1429
874	874	1364
875	875	1338
876	876	1394
877	877	1474
878	878	1380
879	879	1789
880	880	1444
881	881	1392
882	882	1402
883	883	1445
884	884	1411
885	885	1596
886	886	5401
887	887	1371
888	888	2137
889	889	1852
890	890	1559
891	891	1466
892	892	1574
893	893	1359
894	894	1481
895	895	1590
896	896	1478
897	897	1951
898	898	1531
899	899	1381
900	900	1417
901	901	1368
902	902	1461
903	903	1497
904	904	1493
905	905	1441
906	906	1465
907	907	1557
908	908	3135
909	909	1561
910	910	1442
911	911	3113
912	912	5030
913	913	1638
914	914	1870
915	915	2197
916	916	1681
917	917	1553
918	918	2769
919	919	2480
920	920	2746
921	921	1457
922	922	1505
923	923	1729
924	924	1461
925	925	1514
926	926	1616
927	927	1544
928	928	3395
929	929	2000
930	930	1563
931	931	1520
932	932	2123
933	933	1495
934	934	1495
935	935	1563
936	936	4746
937	937	1548
938	938	1459
939	939	1531
940	940	1481
941	941	3139
942	942	1512
943	943	1528
944	944	1521
945	945	1524
946	946	1524
947	947	1546
948	948	1606
949	949	4752
950	950	1582
951	951	5985
952	952	1864
953	953	1523
954	954	1561
955	955	1711
956	956	1488
957	957	1503
958	958	1531
959	959	1677
960	960	1691
961	961	1632
962	962	1648
963	963	5230
964	964	1630
965	965	1884
966	966	1587
967	967	1629
968	968	1625
969	969	1565
970	970	1663
971	971	2426
972	972	4143
973	973	1625
974	974	1619
975	975	1648
976	976	2298
977	977	1751
978	978	5595
979	979	1894
980	980	1556
981	981	1536
982	982	1684
983	983	2367
984	984	1743
985	985	1665
986	986	2006
987	987	2622
988	988	1649
989	989	1674
990	990	6295
991	991	1744
992	992	5264
993	993	1710
994	994	1657
995	995	1997
996	996	4393
997	997	1607
998	998	1799
999	999	1586
1000	1000	1660
